
Gurobi 9.1.2 (linux64) logging started Wed Nov 24 10:26:19 2021

Changed value of parameter LogFile to lemke_square_v-(1, 5).log-s20-l10.log
   Prev:   Default: 
Changed value of parameter Threads to 32
   Prev: 0  Min: 0  Max: 1024  Default: 0
Changed value of parameter TimeLimit to 3600.0
   Prev: inf  Min: 0.0  Max: inf  Default: inf
Changed value of parameter MIPGap to 0.4
   Prev: 0.0001  Min: 0.0  Max: inf  Default: 0.0001
Warning: variable name "X[(7, 4),(7, 3)]" has a space
Warning: constraint name "flow-constr-t0-v(3, 0)" has a space
Warning: to let Gurobi read it back, use rlp format
Gurobi Optimizer version 9.1.2 build v9.1.2rc0 (linux64)
Thread count: 16 physical cores, 32 logical processors, using up to 32 threads
Optimize a model with 6053 rows, 5440 columns and 20770 nonzeros
Model fingerprint: 0x176f956b
Variable types: 0 continuous, 5440 integer (4800 binary)
Coefficient statistics:
  Matrix range     [1e+00, 1e+03]
  Objective range  [1e-01, 1e-01]
  Bounds range     [1e+00, 5e+02]
  RHS range        [1e+00, 1e+03]
Presolve removed 357 rows and 370 columns
Presolve time: 0.04s
Presolved: 5696 rows, 5070 columns, 18990 nonzeros
Variable types: 0 continuous, 5070 integer (4430 binary)

Root relaxation: objective 6.400000e+01, 129 iterations, 0.00 seconds

    Nodes    |    Current Node    |     Objective Bounds      |     Work
 Expl Unexpl |  Obj  Depth IntInf | Incumbent    BestBd   Gap | It/Node Time

     0     0   64.00000    0   42          -   64.00000      -     -    0s
     0     0   64.00000    0   74          -   64.00000      -     -    0s
     0     0   64.00000    0   74          -   64.00000      -     -    0s
     0     0   64.00000    0   48          -   64.00000      -     -    0s
     0     0   64.00000    0   48          -   64.00000      -     -    0s
H    0     0                    2654.0000000   64.00000  97.6%     -    0s
     0     0   64.00000    0   48 2654.00000   64.00000  97.6%     -    0s
H    0     0                     118.4000000   64.00000  45.9%     -    0s
     0     2   64.00000    0   44  118.40000   64.00000  45.9%     -    1s
H   31    64                     118.2000000   64.00000  45.9%  57.4    1s
H   32    64                     112.8000000   64.00000  43.3%  57.6    1s
H   36    64                     110.2000000   64.00000  41.9%  57.2    1s
H   63    96                     109.4000000   64.00000  41.5%  55.1    2s
H   64    96                     108.8000000   64.00000  41.2%  54.7    2s
H   65    96                     105.8000000   64.00000  39.5%  54.5    2s
H   68    96                      97.7000000   64.00000  34.5%  53.8    2s

Cutting planes:
  Gomory: 4
  Cover: 109
  Implied bound: 128
  Clique: 17
  MIR: 37
  StrongCG: 1
  Flow cover: 20
  Zero half: 1
  RLT: 14
  Relax-and-lift: 29

Explored 95 nodes (6713 simplex iterations) in 2.18 seconds
Thread count was 32 (of 32 available processors)

Solution count 9: 97.7 105.8 108.8 ... 2654

Optimal solution found (tolerance 4.00e-01)
Best objective 9.770000000000e+01, best bound 6.400000000000e+01, gap 34.4933%

Gurobi 9.1.2 (linux64) logging started Wed Nov 24 10:31:18 2021

Changed value of parameter LogFile to lemke_square_v-(1, 5).log-s20-l10.log
   Prev:   Default: 
Changed value of parameter Threads to 32
   Prev: 0  Min: 0  Max: 1024  Default: 0
Changed value of parameter TimeLimit to 3600.0
   Prev: inf  Min: 0.0  Max: inf  Default: inf
Changed value of parameter MIPGap to 0.4
   Prev: 0.0001  Min: 0.0  Max: inf  Default: 0.0001
Warning: variable name "X[(7, 4),(7, 3)]" has a space
Warning: constraint name "flow-constr-t0-v(3, 0)" has a space
Warning: to let Gurobi read it back, use rlp format
Gurobi Optimizer version 9.1.2 build v9.1.2rc0 (linux64)
Thread count: 16 physical cores, 32 logical processors, using up to 32 threads
Optimize a model with 6053 rows, 5440 columns and 20770 nonzeros
Model fingerprint: 0x176f956b
Variable types: 0 continuous, 5440 integer (4800 binary)
Coefficient statistics:
  Matrix range     [1e+00, 1e+03]
  Objective range  [1e-01, 1e-01]
  Bounds range     [1e+00, 5e+02]
  RHS range        [1e+00, 1e+03]
Presolve removed 357 rows and 370 columns
Presolve time: 0.03s
Presolved: 5696 rows, 5070 columns, 18990 nonzeros
Variable types: 0 continuous, 5070 integer (4430 binary)

Root relaxation: objective 6.400000e+01, 129 iterations, 0.00 seconds

    Nodes    |    Current Node    |     Objective Bounds      |     Work
 Expl Unexpl |  Obj  Depth IntInf | Incumbent    BestBd   Gap | It/Node Time

     0     0   64.00000    0   42          -   64.00000      -     -    0s
     0     0   64.00000    0   74          -   64.00000      -     -    0s
     0     0   64.00000    0   74          -   64.00000      -     -    0s
     0     0   64.00000    0   48          -   64.00000      -     -    0s
     0     0   64.00000    0   48          -   64.00000      -     -    0s
H    0     0                    2654.0000000   64.00000  97.6%     -    0s
     0     0   64.00000    0   48 2654.00000   64.00000  97.6%     -    0s
H    0     0                     118.4000000   64.00000  45.9%     -    0s
     0     2   64.00000    0   44  118.40000   64.00000  45.9%     -    0s
H   31    64                     118.2000000   64.00000  45.9%  57.4    1s
H   32    64                     112.8000000   64.00000  43.3%  57.6    1s
H   36    64                     110.2000000   64.00000  41.9%  57.2    1s
H   63    96                     109.4000000   64.00000  41.5%  55.1    2s
H   64    96                     108.8000000   64.00000  41.2%  54.7    2s
H   65    96                     105.8000000   64.00000  39.5%  54.5    2s
H   68    96                      97.7000000   64.00000  34.5%  53.8    2s

Cutting planes:
  Gomory: 4
  Cover: 109
  Implied bound: 128
  Clique: 17
  MIR: 37
  StrongCG: 1
  Flow cover: 20
  Zero half: 1
  RLT: 14
  Relax-and-lift: 29

Explored 95 nodes (6713 simplex iterations) in 2.18 seconds
Thread count was 32 (of 32 available processors)

Solution count 9: 97.7 105.8 108.8 ... 2654

Optimal solution found (tolerance 4.00e-01)
Best objective 9.770000000000e+01, best bound 6.400000000000e+01, gap 34.4933%

Gurobi 9.1.2 (linux64) logging started Wed Nov 24 11:38:25 2021

Changed value of parameter LogFile to lemke_square_v-(1, 5).log-s20-l10.log
   Prev:   Default: 
Changed value of parameter Threads to 32
   Prev: 0  Min: 0  Max: 1024  Default: 0
Changed value of parameter TimeLimit to 3600.0
   Prev: inf  Min: 0.0  Max: inf  Default: inf
Changed value of parameter MIPGap to 0.34
   Prev: 0.0001  Min: 0.0  Max: inf  Default: 0.0001
Warning: variable name "X[(7, 4),(7, 3)]" has a space
Warning: constraint name "flow-constr-t0-v(3, 0)" has a space
Warning: to let Gurobi read it back, use rlp format
Gurobi Optimizer version 9.1.2 build v9.1.2rc0 (linux64)
Thread count: 16 physical cores, 32 logical processors, using up to 32 threads
Optimize a model with 6053 rows, 5440 columns and 20770 nonzeros
Model fingerprint: 0x176f956b
Variable types: 0 continuous, 5440 integer (4800 binary)
Coefficient statistics:
  Matrix range     [1e+00, 1e+03]
  Objective range  [1e-01, 1e-01]
  Bounds range     [1e+00, 5e+02]
  RHS range        [1e+00, 1e+03]
Presolve removed 357 rows and 370 columns
Presolve time: 0.04s
Presolved: 5696 rows, 5070 columns, 18990 nonzeros
Variable types: 0 continuous, 5070 integer (4430 binary)

Root relaxation: objective 6.400000e+01, 129 iterations, 0.00 seconds

    Nodes    |    Current Node    |     Objective Bounds      |     Work
 Expl Unexpl |  Obj  Depth IntInf | Incumbent    BestBd   Gap | It/Node Time

     0     0   64.00000    0   42          -   64.00000      -     -    0s
     0     0   64.00000    0   74          -   64.00000      -     -    0s
     0     0   64.00000    0   74          -   64.00000      -     -    0s
     0     0   64.00000    0   48          -   64.00000      -     -    0s
     0     0   64.00000    0   48          -   64.00000      -     -    0s
H    0     0                    2654.0000000   64.00000  97.6%     -    0s
     0     0   64.00000    0   48 2654.00000   64.00000  97.6%     -    0s
H    0     0                     118.4000000   64.00000  45.9%     -    0s
     0     2   64.00000    0   44  118.40000   64.00000  45.9%     -    1s
H   31    64                     118.2000000   64.00000  45.9%  57.4    1s
H   32    64                     112.8000000   64.00000  43.3%  57.6    1s
H   36    64                     110.2000000   64.00000  41.9%  57.2    1s
H   63    96                     109.4000000   64.00000  41.5%  55.1    2s
H   64    96                     108.8000000   64.00000  41.2%  54.7    2s
H   65    96                     105.8000000   64.00000  39.5%  54.5    2s
H   68    96                      97.7000000   64.00000  34.5%  53.8    2s
H   95   128                      95.1000000   64.00000  32.7%  48.4    3s
H   97   128                      93.9000000   64.00000  31.8%  47.9    3s
H  100   128                      90.9000000   64.00000  29.6%  47.5    3s
H  103   128                      89.8000000   64.00000  28.7%  46.5    3s
H  126   128                      89.5000000   64.00000  28.5%  38.5    3s

Cutting planes:
  Gomory: 4
  Cover: 109
  Implied bound: 128
  Clique: 17
  MIR: 37
  StrongCG: 1
  Flow cover: 20
  Zero half: 1
  RLT: 14
  Relax-and-lift: 29

Explored 127 nodes (6964 simplex iterations) in 3.96 seconds
Thread count was 32 (of 32 available processors)

Solution count 10: 89.5 89.8 90.9 ... 110.2

Optimal solution found (tolerance 3.40e-01)
Best objective 8.950000000000e+01, best bound 6.400000000000e+01, gap 28.4916%

Gurobi 9.1.2 (linux64) logging started Wed Nov 24 11:39:28 2021

Changed value of parameter LogFile to lemke_square_v-(1, 5).log-s20-l10.log
   Prev:   Default: 
Changed value of parameter Threads to 32
   Prev: 0  Min: 0  Max: 1024  Default: 0
Changed value of parameter TimeLimit to 3600.0
   Prev: inf  Min: 0.0  Max: inf  Default: inf
Changed value of parameter MIPGap to 0.3
   Prev: 0.0001  Min: 0.0  Max: inf  Default: 0.0001
Warning: variable name "X[(7, 4),(7, 3)]" has a space
Warning: constraint name "flow-constr-t0-v(3, 0)" has a space
Warning: to let Gurobi read it back, use rlp format
Gurobi Optimizer version 9.1.2 build v9.1.2rc0 (linux64)
Thread count: 16 physical cores, 32 logical processors, using up to 32 threads
Optimize a model with 6053 rows, 5440 columns and 20770 nonzeros
Model fingerprint: 0x176f956b
Variable types: 0 continuous, 5440 integer (4800 binary)
Coefficient statistics:
  Matrix range     [1e+00, 1e+03]
  Objective range  [1e-01, 1e-01]
  Bounds range     [1e+00, 5e+02]
  RHS range        [1e+00, 1e+03]
Presolve removed 357 rows and 370 columns
Presolve time: 0.04s
Presolved: 5696 rows, 5070 columns, 18990 nonzeros
Variable types: 0 continuous, 5070 integer (4430 binary)

Root relaxation: objective 6.400000e+01, 129 iterations, 0.01 seconds

    Nodes    |    Current Node    |     Objective Bounds      |     Work
 Expl Unexpl |  Obj  Depth IntInf | Incumbent    BestBd   Gap | It/Node Time

     0     0   64.00000    0   42          -   64.00000      -     -    0s
     0     0   64.00000    0   74          -   64.00000      -     -    0s
     0     0   64.00000    0   74          -   64.00000      -     -    0s
     0     0   64.00000    0   48          -   64.00000      -     -    0s
     0     0   64.00000    0   48          -   64.00000      -     -    0s
H    0     0                    2654.0000000   64.00000  97.6%     -    0s
     0     0   64.00000    0   48 2654.00000   64.00000  97.6%     -    0s
H    0     0                     118.4000000   64.00000  45.9%     -    0s
     0     2   64.00000    0   44  118.40000   64.00000  45.9%     -    0s
H   31    64                     118.2000000   64.00000  45.9%  57.4    1s
H   32    64                     112.8000000   64.00000  43.3%  57.6    1s
H   36    64                     110.2000000   64.00000  41.9%  57.2    1s
H   63    96                     109.4000000   64.00000  41.5%  55.1    2s
H   64    96                     108.8000000   64.00000  41.2%  54.7    2s
H   65    96                     105.8000000   64.00000  39.5%  54.5    2s
H   68    96                      97.7000000   64.00000  34.5%  53.8    2s
H   95   128                      95.1000000   64.00000  32.7%  48.4    3s
H   97   128                      93.9000000   64.00000  31.8%  47.9    3s
H  100   128                      90.9000000   64.00000  29.6%  47.5    3s
H  103   128                      89.8000000   64.00000  28.7%  46.5    3s
H  126   128                      89.5000000   64.00000  28.5%  38.5    3s

Cutting planes:
  Gomory: 4
  Cover: 109
  Implied bound: 128
  Clique: 17
  MIR: 37
  StrongCG: 1
  Flow cover: 20
  Zero half: 1
  RLT: 14
  Relax-and-lift: 29

Explored 127 nodes (6964 simplex iterations) in 3.99 seconds
Thread count was 32 (of 32 available processors)

Solution count 10: 89.5 89.8 90.9 ... 110.2

Optimal solution found (tolerance 3.00e-01)
Best objective 8.950000000000e+01, best bound 6.400000000000e+01, gap 28.4916%

Gurobi 9.1.2 (linux64) logging started Wed Nov 24 13:02:18 2021

Changed value of parameter LogFile to lemke_square_v-(1, 5).log-s20-l10.log
   Prev:   Default: 
Changed value of parameter Threads to 32
   Prev: 0  Min: 0  Max: 1024  Default: 0
Changed value of parameter TimeLimit to 3600.0
   Prev: inf  Min: 0.0  Max: inf  Default: inf
Changed value of parameter MIPGap to 0.3
   Prev: 0.0001  Min: 0.0  Max: inf  Default: 0.0001
Warning: variable name "X[(7, 4),(7, 3)]" has a space
Warning: constraint name "flow-constr-t0-v(3, 0)" has a space
Warning: to let Gurobi read it back, use rlp format
Gurobi Optimizer version 9.1.2 build v9.1.2rc0 (linux64)
Thread count: 16 physical cores, 32 logical processors, using up to 32 threads
Optimize a model with 6053 rows, 5440 columns and 20770 nonzeros
Model fingerprint: 0x176f956b
Variable types: 0 continuous, 5440 integer (4800 binary)
Coefficient statistics:
  Matrix range     [1e+00, 1e+03]
  Objective range  [1e-01, 1e-01]
  Bounds range     [1e+00, 5e+02]
  RHS range        [1e+00, 1e+03]
Presolve removed 357 rows and 370 columns
Presolve time: 0.08s
Presolved: 5696 rows, 5070 columns, 18990 nonzeros
Variable types: 0 continuous, 5070 integer (4430 binary)

Root relaxation: objective 6.400000e+01, 129 iterations, 0.01 seconds

    Nodes    |    Current Node    |     Objective Bounds      |     Work
 Expl Unexpl |  Obj  Depth IntInf | Incumbent    BestBd   Gap | It/Node Time

     0     0   64.00000    0   42          -   64.00000      -     -    0s
     0     0   64.00000    0   74          -   64.00000      -     -    0s
     0     0   64.00000    0   74          -   64.00000      -     -    0s
     0     0   64.00000    0   48          -   64.00000      -     -    0s

Cutting planes:
  Gomory: 24
  Cover: 42
  Implied bound: 32
  Clique: 8
  MIR: 55
  Flow cover: 29
  Zero half: 2
  RLT: 11
  Relax-and-lift: 29

Explored 1 nodes (1317 simplex iterations) in 0.81 seconds
Thread count was 32 (of 32 available processors)

Solution count 0

Solve interrupted
Best objective -, best bound 6.400000000000e+01, gap -
